
===== New CPLEX run =====
Instance: /home/yorig/tuner/mpils-tests/instances/miplib/medium-1/neos-3024952-loue.mps
Config: /scratch/yorig/mpils-results-grid-seconds-10-no-mip-start/medium-1/4proc/seed-1/9_neos-3024952-loue_seed-1_20260503_044429/expansion/config_param_CPXPARAM_MIP_Strategy_BBInterval_3_iter_1.prm
========================

Selected objective sense:  MINIMIZE
Selected objective  name:  R3706
Selected RHS        name:  B
Selected bound      name:  BOUND
Version identifier: 22.1.2.0 | 2024-11-26 | 0edbb82fd
CPXPARAM_Threads                                 8
CPXPARAM_Parallel                                1
CPXPARAM_MIP_Cuts_Cliques                        -1
CPXPARAM_MIP_Limits_GomoryCand                   50
CPXPARAM_MIP_Cuts_PathCut                        1
CPXPARAM_MIP_Cuts_MIRCut                         2
CPXPARAM_MIP_Cuts_Disjunctive                    1
CPXPARAM_Emphasis_MIP                            4
CPXPARAM_MIP_Strategy_BBInterval                 3
CPXPARAM_TimeLimit                               10
Tried aggregator 2 times.
MIP Presolve eliminated 40 rows and 0 columns.
MIP Presolve modified 80 coefficients.
Aggregator did 32 substitutions.
Reduced MIP has 3633 rows, 3223 columns, and 15906 nonzeros.
Reduced MIP has 0 binaries, 3223 generals, 0 SOSs, and 0 indicators.
Presolve time = 0.01 sec. (7.72 ticks)
Tried aggregator 1 time.
Detecting symmetries...
Reduced MIP has 3633 rows, 3223 columns, and 15906 nonzeros.
Reduced MIP has 0 binaries, 3223 generals, 0 SOSs, and 0 indicators.
Presolve time = 0.01 sec. (8.53 ticks)
MIP emphasis: hidden feasible solutions.
MIP search method: dynamic search.
Parallel mode: deterministic, using up to 8 threads.
Root relaxation solution time = 0.20 sec. (166.79 ticks)

        Nodes                                         Cuts/
   Node  Left     Objective  IInf  Best Integer    Best Bound    ItCnt     Gap

      0     0    22882.0000   397                  22882.0000     3901         
      0     0    23571.3985   709                   Cuts: 428     4319         
      0     0    23679.1810   802                   Cuts: 227     4447         
      0     0    23736.3198   849                   Cuts: 145     4524         
      0     0    23759.1957   962                   Cuts: 119     4600         
      0     0    23846.8380  1142                   Cuts: 122     4682         
Detecting symmetries...
      0     0    24090.2888   988                   Cuts: 103     4842         
      0     0    24178.3286  1066                   Cuts: 122     4939         
      0     0    24299.3000  1076                   Cuts: 118     5071         
      0     0    24369.9619  1069                    Cuts: 82     5196         
      0     0    24403.5203  1206                    Cuts: 81     5293         
      0     0    24437.9234  1300                    Cuts: 80     5394         
      0     0    24447.5229  1282                    Cuts: 85     5450         
      0     0    24465.3486  1308                    Cuts: 53     5486         
      0     0    24473.2372  1216                    Cuts: 55     5565         
      0     0    24476.2689  1283                    Cuts: 70     5613         
      0     0    24509.7365  1170                    Cuts: 61     5704         
      0     0    24516.1362  1309                    Cuts: 42     5743         
      0     0    24520.1632  1348                    Cuts: 45     5788         
Detecting symmetries...
      0     2    24520.1632  1348                  24520.1632     5788         
Elapsed time = 3.05 sec. (2468.75 ticks, tree = 0.02 MB, solutions = 0)
    382   336    24563.2167   996                  24520.1632     9484         
    840   693    24588.9581   835                  24520.1632    12650         
   1443  1219    24626.1159   731                  24520.1632    18138         
   2044  1852    24808.7714   625                  24520.1632    24697         
   2753  2536    25283.9727   522                  24520.1632    34303         
   3422  3229    25443.7801   760                  24520.1632    44932         
   4157  3919    25744.2923   667                  24520.1632    55501         
   4860  4721    27486.3359   446                  24520.1632    68943         
   5577  5388    26594.9670   467                  24520.1632    79601         
   9018  8722    29249.2667   106                  24520.1632   122452         
Elapsed time = 7.74 sec. (5570.46 ticks, tree = 32.90 MB, solutions = 0)
*  9190+ 8845                        29533.0000    24520.1632            16.97%
*  9264+ 8845                        29459.0000    24520.1632            16.77%
*  9880+ 8838                        29345.0000    24520.1632            16.44%
*  9894+ 8879                        29167.0000    24520.1632            15.93%
   9895  8723    29445.8667    59    29167.0000    24520.1632   126747   15.93%
*  9896+ 8674                        29127.0000    24520.1632            15.82%
* 10022+ 8725                        28776.0000    24520.1632            14.79%

Mixed integer rounding cuts applied:  124
Flow path cuts applied:  0
Zero-half cuts applied:  155
Gomory fractional cuts applied:  25
Disjunctive cuts applied:  0
Cone linearizations applied:  0

Root node processing (before b&c):
  Real time             =    3.00 sec. (2465.98 ticks)
Parallel b&c, 8 threads:
  Real time             =    7.00 sec. (5268.03 ticks)
  Sync time (average)   =    2.06 sec.
  Wait time (average)   =    0.00 sec.
                          ------------
Total (root+branch&cut) =   10.01 sec. (7734.01 ticks)
Gap: 14.78%
Upper bound: 28776
Lower bound: 24522.2
End of CPLEX run. Time: 10.0091 seconds

===== New CPLEX run =====
Instance: /home/yorig/tuner/mpils-tests/instances/miplib/medium-1/neos-3024952-loue.mps
Config: /scratch/yorig/mpils-results-grid-seconds-10-no-mip-start/medium-1/4proc/seed-1/9_neos-3024952-loue_seed-1_20260503_044429/expansion/config_param_CPXPARAM_MIP_Strategy_BBInterval_4_iter_1.prm
========================

Selected objective sense:  MINIMIZE
Selected objective  name:  R3706
Selected RHS        name:  B
Selected bound      name:  BOUND
Version identifier: 22.1.2.0 | 2024-11-26 | 0edbb82fd
CPXPARAM_Threads                                 8
CPXPARAM_Parallel                                1
CPXPARAM_MIP_Cuts_Cliques                        -1
CPXPARAM_MIP_Limits_GomoryCand                   50
CPXPARAM_MIP_Cuts_PathCut                        1
CPXPARAM_MIP_Cuts_MIRCut                         2
CPXPARAM_MIP_Cuts_Disjunctive                    1
CPXPARAM_Emphasis_MIP                            4
CPXPARAM_MIP_Strategy_BBInterval                 4
CPXPARAM_TimeLimit                               10
Tried aggregator 2 times.
MIP Presolve eliminated 40 rows and 0 columns.
MIP Presolve modified 80 coefficients.
Aggregator did 32 substitutions.
Reduced MIP has 3633 rows, 3223 columns, and 15906 nonzeros.
Reduced MIP has 0 binaries, 3223 generals, 0 SOSs, and 0 indicators.
Presolve time = 0.01 sec. (7.72 ticks)
Tried aggregator 1 time.
Detecting symmetries...
Reduced MIP has 3633 rows, 3223 columns, and 15906 nonzeros.
Reduced MIP has 0 binaries, 3223 generals, 0 SOSs, and 0 indicators.
Presolve time = 0.01 sec. (8.53 ticks)
MIP emphasis: hidden feasible solutions.
MIP search method: dynamic search.
Parallel mode: deterministic, using up to 8 threads.
Root relaxation solution time = 0.22 sec. (166.79 ticks)

        Nodes                                         Cuts/
   Node  Left     Objective  IInf  Best Integer    Best Bound    ItCnt     Gap

      0     0    22882.0000   397                  22882.0000     3901         
      0     0    23571.3985   709                   Cuts: 428     4319         
      0     0    23679.1810   802                   Cuts: 227     4447         
      0     0    23736.3198   849                   Cuts: 145     4524         
      0     0    23759.1957   962                   Cuts: 119     4600         
      0     0    23846.8380  1142                   Cuts: 122     4682         
Detecting symmetries...
      0     0    24090.2888   988                   Cuts: 103     4842         
      0     0    24178.3286  1066                   Cuts: 122     4939         
      0     0    24299.3000  1076                   Cuts: 118     5071         
      0     0    24369.9619  1069                    Cuts: 82     5196         
      0     0    24403.5203  1206                    Cuts: 81     5293         
      0     0    24437.9234  1300                    Cuts: 80     5394         
      0     0    24447.5229  1282                    Cuts: 85     5450         
      0     0    24465.3486  1308                    Cuts: 53     5486         
      0     0    24473.2372  1216                    Cuts: 55     5565         
      0     0    24476.2689  1283                    Cuts: 70     5613         
      0     0    24509.7365  1170                    Cuts: 61     5704         
      0     0    24516.1362  1309                    Cuts: 42     5743         
      0     0    24520.1632  1348                    Cuts: 45     5788         
Detecting symmetries...
      0     2    24520.1632  1348                  24520.1632     5788         
Elapsed time = 3.02 sec. (2468.75 ticks, tree = 0.02 MB, solutions = 0)
    382   336    24563.2167   996                  24520.1632     9484         
    840   693    24588.9581   835                  24520.1632    12650         
   1443  1219    24626.1159   731                  24520.1632    18138         
   2044  1852    24808.7714   625                  24520.1632    24697         
   2753  2536    25283.9727   522                  24520.1632    34303         
   3422  3229    25443.7801   760                  24520.1632    44932         
   4157  3919    25744.2923   667                  24520.1632    55501         
   4860  4721    27486.3359   446                  24520.1632    68943         
   5577  5388    26594.9670   467                  24520.1632    79601         
   9018  8722    29249.2667   106                  24520.1632   122452         
Elapsed time = 7.70 sec. (5570.46 ticks, tree = 32.90 MB, solutions = 0)
*  9190+ 8845                        29533.0000    24520.1632            16.97%
*  9264+ 8845                        29459.0000    24520.1632            16.77%
*  9880+ 8838                        29345.0000    24520.1632            16.44%
*  9894+ 8879                        29167.0000    24520.1632            15.93%
   9895  8723    29445.8667    59    29167.0000    24520.1632   126747   15.93%
*  9896+ 8674                        29157.0000    24520.1632            15.90%
*  9896+ 8674                        29071.0000    24520.1632            15.65%
* 10090+ 8659                        28791.0000    24520.1632            14.83%

Mixed integer rounding cuts applied:  122
Flow path cuts applied:  0
Zero-half cuts applied:  155
Gomory fractional cuts applied:  25
Disjunctive cuts applied:  0
Cone linearizations applied:  0

Root node processing (before b&c):
  Real time             =    2.87 sec. (2466.00 ticks)
Parallel b&c, 8 threads:
  Real time             =    7.14 sec. (5187.49 ticks)
  Sync time (average)   =    2.04 sec.
  Wait time (average)   =    0.00 sec.
                          ------------
Total (root+branch&cut) =   10.01 sec. (7653.49 ticks)
Gap: 14.83%
Upper bound: 28791
Lower bound: 24522.2
End of CPLEX run. Time: 10.0082 seconds

===== New CPLEX run =====
Instance: /home/yorig/tuner/mpils-tests/instances/miplib/medium-1/neos-3024952-loue.mps
Config: /scratch/yorig/mpils-results-grid-seconds-10-no-mip-start/medium-1/4proc/seed-1/9_neos-3024952-loue_seed-1_20260503_044429/expansion/config_param_CPXPARAM_MIP_Strategy_BBInterval_5_iter_1.prm
========================

Selected objective sense:  MINIMIZE
Selected objective  name:  R3706
Selected RHS        name:  B
Selected bound      name:  BOUND
Version identifier: 22.1.2.0 | 2024-11-26 | 0edbb82fd
CPXPARAM_Threads                                 8
CPXPARAM_Parallel                                1
CPXPARAM_MIP_Cuts_Cliques                        -1
CPXPARAM_MIP_Limits_GomoryCand                   50
CPXPARAM_MIP_Cuts_PathCut                        1
CPXPARAM_MIP_Cuts_MIRCut                         2
CPXPARAM_MIP_Cuts_Disjunctive                    1
CPXPARAM_Emphasis_MIP                            4
CPXPARAM_MIP_Strategy_BBInterval                 5
CPXPARAM_TimeLimit                               10
Tried aggregator 2 times.
MIP Presolve eliminated 40 rows and 0 columns.
MIP Presolve modified 80 coefficients.
Aggregator did 32 substitutions.
Reduced MIP has 3633 rows, 3223 columns, and 15906 nonzeros.
Reduced MIP has 0 binaries, 3223 generals, 0 SOSs, and 0 indicators.
Presolve time = 0.01 sec. (7.72 ticks)
Tried aggregator 1 time.
Detecting symmetries...
Reduced MIP has 3633 rows, 3223 columns, and 15906 nonzeros.
Reduced MIP has 0 binaries, 3223 generals, 0 SOSs, and 0 indicators.
Presolve time = 0.01 sec. (8.53 ticks)
MIP emphasis: hidden feasible solutions.
MIP search method: dynamic search.
Parallel mode: deterministic, using up to 8 threads.
Root relaxation solution time = 0.25 sec. (166.79 ticks)

        Nodes                                         Cuts/
   Node  Left     Objective  IInf  Best Integer    Best Bound    ItCnt     Gap

      0     0    22882.0000   397                  22882.0000     3901         
      0     0    23571.3985   709                   Cuts: 428     4319         
      0     0    23679.1810   802                   Cuts: 227     4447         
      0     0    23736.3198   849                   Cuts: 145     4524         
      0     0    23759.1957   962                   Cuts: 119     4600         
      0     0    23846.8380  1142                   Cuts: 122     4682         
Detecting symmetries...
      0     0    24090.2888   988                   Cuts: 103     4842         
      0     0    24178.3286  1066                   Cuts: 122     4939         
      0     0    24299.3000  1076                   Cuts: 118     5071         
      0     0    24369.9619  1069                    Cuts: 82     5196         
      0     0    24403.5203  1206                    Cuts: 81     5293         
      0     0    24437.9234  1300                    Cuts: 80     5394         
      0     0    24447.5229  1282                    Cuts: 85     5450         
      0     0    24465.3486  1308                    Cuts: 53     5486         
      0     0    24473.2372  1216                    Cuts: 55     5565         
      0     0    24476.2689  1283                    Cuts: 70     5613         
      0     0    24509.7365  1170                    Cuts: 61     5704         
      0     0    24516.1362  1309                    Cuts: 42     5743         
      0     0    24520.1632  1348                    Cuts: 45     5788         
Detecting symmetries...
      0     2    24520.1632  1348                  24520.1632     5788         
Elapsed time = 3.18 sec. (2468.75 ticks, tree = 0.02 MB, solutions = 0)
    382   336    24563.2167   996                  24520.1632     9484         
    840   693    24588.9581   835                  24520.1632    12650         
   1443  1219    24626.1159   731                  24520.1632    18138         
   2044  1852    24808.7714   625                  24520.1632    24697         
   2753  2536    25283.9727   522                  24520.1632    34303         
   3422  3229    25443.7801   760                  24520.1632    44932         
   4157  3919    25744.2923   667                  24520.1632    55501         
   4860  4721    27486.3359   446                  24520.1632    68943         
   5577  5388    26594.9670   467                  24520.1632    79601         
   9018  8722    29249.2667   106                  24520.1632   122452         
Elapsed time = 7.74 sec. (5570.46 ticks, tree = 32.90 MB, solutions = 0)
*  9190+ 8845                        29533.0000    24520.1632            16.97%
*  9264+ 8845                        29459.0000    24520.1632            16.77%
*  9880+ 8838                        29345.0000    24520.1632            16.44%
*  9894+ 8879                        29167.0000    24520.1632            15.93%
   9895  8723    29445.8667    59    29167.0000    24520.1632   126747   15.93%
*  9896+ 8674                        29127.0000    24520.1632            15.82%
* 10022+ 8725                        28776.0000    24520.1632            14.79%

Mixed integer rounding cuts applied:  124
Flow path cuts applied:  0
Zero-half cuts applied:  155
Gomory fractional cuts applied:  25
Disjunctive cuts applied:  0
Cone linearizations applied:  0

Root node processing (before b&c):
  Real time             =    2.95 sec. (2465.98 ticks)
Parallel b&c, 8 threads:
  Real time             =    7.06 sec. (5253.94 ticks)
  Sync time (average)   =    2.08 sec.
  Wait time (average)   =    0.00 sec.
                          ------------
Total (root+branch&cut) =   10.01 sec. (7719.92 ticks)
Gap: 14.78%
Upper bound: 28776
Lower bound: 24522.2
End of CPLEX run. Time: 10.0096 seconds
